10J3M/DAT/10J3MNLR-6.dat
10 3
25.3408 3.7718
22.8757 22.1163
27.4895 0.9989
21.7614 35.1613
21.1648 13.9852
33.6264 19.8286
23.567 34.3719
28.3648 6.7804
26.8609 16.6097
17.5611 47.0007
66.8749