10J3M/SOL/10J3MNLR-6.sol
solution status: optimal solution found
objective value:                     82.8707875455046
x#1#2                                               1 	(obj:0)
x#2#3                                               1 	(obj:0)
x#3#2                               0.752331473795344 	(obj:0)
x#3#3                               0.247668526204656 	(obj:0)
x#4#1                               0.723237337690703 	(obj:0)
x#4#2                               0.276762662309297 	(obj:0)
x#5#1                                               1 	(obj:0)
x#6#1                                               1 	(obj:0)
x#7#3                                               1 	(obj:0)
x#8#3                                               1 	(obj:0)
x#9#1                               0.459438460553524 	(obj:0)
x#9#2                               0.540561539446476 	(obj:0)
x#10#2                              0.928532896123373 	(obj:0)
x#10#3                             0.0714649762487405 	(obj:0)
z                                    82.8707875455046 	(obj:1)
